c generated by ezSAT
p cnf 38 88
    1              0
   -2              0
    1              0
    4   -3    5    0
   -5   -4         0
   -5    3         0
    3   -4    6    0
   -6   -3         0
   -6    4         0
    5    6   -7    0
    7   -5         0
    7   -6         0
    7              0
    9   -8   10    0
  -10   -9         0
  -10    8         0
    8   -9   11    0
  -11   -8         0
  -11    9         0
   10   11  -12    0
   12  -10         0
   12  -11         0
   12              0
   -4   -8   14    0
  -14    4         0
  -14    8         0
   13   14   15    0
  -15  -13         0
  -15  -14         0
  -14  -13   16    0
  -16   14         0
  -16   13         0
   15   16  -17    0
   17  -15         0
   17  -16         0
   17              0
   -3   -9   19    0
  -19    3         0
  -19    9         0
   18   19   20    0
  -20  -18         0
  -20  -19         0
  -19  -18   21    0
  -21   19         0
  -21   18         0
   20   21  -22    0
   22  -20         0
   22  -21         0
   22              0
   13   18  -24    0
   24  -13         0
   24  -18         0
   23   24   25    0
  -25  -23         0
  -25  -24         0
  -24  -23   26    0
  -26   24         0
  -26   23         0
   25   26  -27    0
   27  -25         0
   27  -26         0
   27              0
   -9  -28   30    0
  -30    9         0
  -30   28         0
   29   30   31    0
  -31  -29         0
  -31  -30         0
  -30  -29   32    0
  -32   30         0
  -32   29         0
   31   32  -33    0
   33  -31         0
   33  -32         0
   33              0
   23   29  -35    0
   35  -23         0
   35  -29         0
   34   35   36    0
  -36  -34         0
  -36  -35         0
  -35  -34   37    0
  -37   35         0
  -37   34         0
   36   37  -38    0
   38  -36         0
   38  -37         0
   38              0
